; DUP1 SLOAD DUP3 SWAP2 PUSH cw_1 SWAP2 => PUSH cw_1 DUP3 SWAP2 DUP1 SLOAD
(set-option :produce-proofs true)
; 
(set-info :status unknown)
(declare-fun storage_t ((_ BitVec 256) (_ BitVec 256) (_ BitVec 256) (_ BitVec 256) Int (_ BitVec 256)) (_ BitVec 256))
(declare-fun w_1 () (_ BitVec 256))
(declare-fun storage_s ((_ BitVec 256) (_ BitVec 256) (_ BitVec 256) (_ BitVec 256) Int (_ BitVec 256)) (_ BitVec 256))
(declare-fun exc_halt_t (Int) Bool)
(declare-fun exc_halt_s (Int) Bool)
(declare-fun sc_t (Int) (_ BitVec 6))
(declare-fun stack_t ((_ BitVec 256) (_ BitVec 256) (_ BitVec 256) (_ BitVec 256) Int (_ BitVec 6)) (_ BitVec 256))
(declare-fun stack_s ((_ BitVec 256) (_ BitVec 256) (_ BitVec 256) (_ BitVec 256) Int (_ BitVec 6)) (_ BitVec 256))
(declare-fun sc_s (Int) (_ BitVec 6))
(declare-fun used_gas_t ((_ BitVec 256) (_ BitVec 256) (_ BitVec 256) (_ BitVec 256) Int) Int)
(declare-fun used_gas_s ((_ BitVec 256) (_ BitVec 256) (_ BitVec 256) (_ BitVec 256) Int) Int)
(assert
 (exists ((x_0 (_ BitVec 256)) (x_1 (_ BitVec 256)) (x_SLOAD_0 (_ BitVec 256)) )(let (($x4847 (forall ((w (_ BitVec 256)) )(let ((?x10041 (storage_t x_0 x_1 x_SLOAD_0 w_1 5 w)))
 (let ((?x2232 (storage_s x_0 x_1 x_SLOAD_0 w_1 6 w)))
 (= ?x2232 ?x10041))))
 ))
 (let (($x886 (exc_halt_t 5)))
 (let (($x772 (exc_halt_s 6)))
 (let (($x889 (= $x772 $x886)))
 (let (($x10353 (forall ((n (_ BitVec 6)) )(let ((?x919 (sc_t 5)))
 (let (($x8034 (bvsle ?x919 n)))
 (let ((?x11682 (stack_t x_0 x_1 x_SLOAD_0 w_1 5 n)))
 (let ((?x7316 (stack_s x_0 x_1 x_SLOAD_0 w_1 6 n)))
 (let (($x3458 (= ?x7316 ?x11682)))
 (or $x3458 $x8034)))))))
 ))
 (let ((?x919 (sc_t 5)))
 (let ((?x926 (sc_s 6)))
 (let (($x929 (= ?x926 ?x919)))
 (let ((?x1005 (used_gas_t x_0 x_1 x_SLOAD_0 w_1 0)))
 (let ((?x11839 (used_gas_s x_0 x_1 x_SLOAD_0 w_1 0)))
 (let (($x9145 (= ?x11839 ?x1005)))
 (let (($x7691 (forall ((w (_ BitVec 256)) )(let ((?x4666 (storage_t x_0 x_1 x_SLOAD_0 w_1 0 w)))
 (let ((?x528 (storage_s x_0 x_1 x_SLOAD_0 w_1 0 w)))
 (= ?x528 ?x4666))))
 ))
 (let (($x56 (exc_halt_t 0)))
 (let (($x57 (exc_halt_s 0)))
 (let (($x58 (= $x57 $x56)))
 (let (($x9976 (forall ((n (_ BitVec 6)) )(let ((?x8292 (stack_t x_0 x_1 x_SLOAD_0 w_1 0 n)))
 (let ((?x6172 (stack_s x_0 x_1 x_SLOAD_0 w_1 0 n)))
 (let (($x5604 (= ?x6172 ?x8292)))
 (let ((?x63 (sc_t 0)))
 (let (($x5499 (bvsle ?x63 n)))
 (or $x5499 $x5604)))))))
 ))
 (let ((?x63 (sc_t 0)))
 (let ((?x72 (sc_s 0)))
 (let (($x73 (= ?x72 ?x63)))
 (let (($x10997 (= $x886 (or (exc_halt_t 4) (not (bvsle (_ bv0 6) (bvadd (_ bv63 6) (sc_t 4))))))))
 (let (($x8713 (forall ((w (_ BitVec 256)) )(let ((?x3093 (storage_t x_0 x_1 x_SLOAD_0 w_1 4 w)))
 (let ((?x10041 (storage_t x_0 x_1 x_SLOAD_0 w_1 5 w)))
 (= ?x10041 ?x3093))))
 ))
 (let (($x3769 (forall ((n (_ BitVec 6)) )(let ((?x3159 (stack_t x_0 x_1 x_SLOAD_0 w_1 4 n)))
 (let ((?x11682 (stack_t x_0 x_1 x_SLOAD_0 w_1 5 n)))
 (or (bvsle (bvadd (_ bv63 6) (sc_t 4)) n) (= ?x11682 ?x3159)))))
 ))
 (let ((?x11631 (sc_t 4)))
 (let (($x6915 (= ?x919 ?x11631)))
 (let (($x7421 (= (used_gas_t x_0 x_1 x_SLOAD_0 w_1 5) (+ 200 (used_gas_t x_0 x_1 x_SLOAD_0 w_1 4)))))
 (let ((?x3013 (bvadd (_ bv63 6) ?x11631)))
 (let ((?x9884 (stack_t x_0 x_1 x_SLOAD_0 w_1 4 ?x3013)))
 (let (($x10686 (= (stack_t x_0 x_1 x_SLOAD_0 w_1 5 (bvadd (_ bv63 6) ?x919)) (storage_t x_0 x_1 x_SLOAD_0 w_1 4 ?x9884))))
 (let (($x6783 (exc_halt_t 3)))
 (let (($x3840 (not (= ((_ extract 6 6) (bvadd (_ bv1 7) (concat (_ bv0 1) (sc_t 3)))) (_ bv0 1)))))
 (let (($x7722 (exc_halt_t 4)))
 (let (($x10741 (forall ((w (_ BitVec 256)) )(let ((?x1789 (storage_t x_0 x_1 x_SLOAD_0 w_1 3 w)))
 (let ((?x3093 (storage_t x_0 x_1 x_SLOAD_0 w_1 4 w)))
 (= ?x3093 ?x1789))))
 ))
 (let (($x5458 (forall ((n (_ BitVec 6)) )(let ((?x3616 (stack_t x_0 x_1 x_SLOAD_0 w_1 3 n)))
 (let ((?x3159 (stack_t x_0 x_1 x_SLOAD_0 w_1 4 n)))
 (let (($x983 (= ?x3159 ?x3616)))
 (or (bvsle (bvadd (_ bv63 6) (sc_t 3)) n) $x983)))))
 ))
 (let (($x2801 (= ?x11631 (bvadd (_ bv1 6) (sc_t 3)))))
 (let ((?x11698 (used_gas_t x_0 x_1 x_SLOAD_0 w_1 4)))
 (let (($x10825 (= ?x11698 (+ 3 (used_gas_t x_0 x_1 x_SLOAD_0 w_1 3)))))
 (let ((?x6438 (sc_t 3)))
 (let ((?x7970 (bvadd (_ bv63 6) ?x6438)))
 (let ((?x7833 (stack_t x_0 x_1 x_SLOAD_0 w_1 3 ?x7970)))
 (let (($x6740 (= $x6783 (or (exc_halt_t 2) (not (bvsle (_ bv0 6) (bvadd (_ bv61 6) (sc_t 2))))))))
 (let (($x2294 (forall ((w (_ BitVec 256)) )(let ((?x11574 (storage_t x_0 x_1 x_SLOAD_0 w_1 2 w)))
 (let ((?x1789 (storage_t x_0 x_1 x_SLOAD_0 w_1 3 w)))
 (= ?x1789 ?x11574))))
 ))
 (let (($x7020 (forall ((n (_ BitVec 6)) )(let ((?x6913 (stack_t x_0 x_1 x_SLOAD_0 w_1 2 n)))
 (let ((?x3616 (stack_t x_0 x_1 x_SLOAD_0 w_1 3 n)))
 (let (($x7866 (= ?x3616 ?x6913)))
 (or $x7866 (bvsle (bvadd (_ bv61 6) (sc_t 2)) n))))))
 ))
 (let ((?x2714 (sc_t 2)))
 (let (($x5711 (= ?x6438 ?x2714)))
 (let ((?x9027 (used_gas_t x_0 x_1 x_SLOAD_0 w_1 3)))
 (let (($x1147 (= ?x9027 (+ 3 (used_gas_t x_0 x_1 x_SLOAD_0 w_1 2)))))
 (let ((?x1572 (bvadd (_ bv62 6) ?x2714)))
 (let ((?x11299 (stack_t x_0 x_1 x_SLOAD_0 w_1 2 ?x1572)))
 (let ((?x8848 (bvadd (_ bv62 6) ?x6438)))
 (let ((?x7692 (stack_t x_0 x_1 x_SLOAD_0 w_1 3 ?x8848)))
 (let ((?x9853 (bvadd (_ bv63 6) ?x2714)))
 (let ((?x9195 (stack_t x_0 x_1 x_SLOAD_0 w_1 2 ?x9853)))
 (let ((?x901 (bvadd (_ bv61 6) ?x6438)))
 (let ((?x7685 (stack_t x_0 x_1 x_SLOAD_0 w_1 3 ?x901)))
 (let (($x9396 (not (= ((_ extract 6 6) (bvadd (_ bv1 7) (concat (_ bv0 1) (sc_t 1)))) (_ bv0 1)))))
 (let (($x3508 (exc_halt_t 1)))
 (let (($x680 (not (bvsle (_ bv0 6) (bvadd (_ bv61 6) (sc_t 1))))))
 (let (($x2163 (exc_halt_t 2)))
 (let (($x9597 (= $x2163 (or $x680 $x3508 $x9396))))
 (let (($x4900 (forall ((w (_ BitVec 256)) )(let ((?x7221 (storage_t x_0 x_1 x_SLOAD_0 w_1 1 w)))
 (let ((?x11574 (storage_t x_0 x_1 x_SLOAD_0 w_1 2 w)))
 (= ?x11574 ?x7221))))
 ))
 (let (($x3592 (forall ((n (_ BitVec 6)) )(let ((?x8347 (sc_t 1)))
 (let ((?x5437 (bvadd (_ bv61 6) ?x8347)))
 (let (($x3199 (bvsle ?x5437 n)))
 (let ((?x10416 (stack_t x_0 x_1 x_SLOAD_0 w_1 1 n)))
 (let ((?x6913 (stack_t x_0 x_1 x_SLOAD_0 w_1 2 n)))
 (let (($x2310 (= ?x6913 ?x10416)))
 (or $x2310 $x3199))))))))
 ))
 (let (($x134 (= ?x2714 (bvadd (_ bv1 6) (sc_t 1)))))
 (let ((?x7336 (used_gas_t x_0 x_1 x_SLOAD_0 w_1 2)))
 (let (($x5075 (= ?x7336 (+ 3 (used_gas_t x_0 x_1 x_SLOAD_0 w_1 1)))))
 (let ((?x8347 (sc_t 1)))
 (let ((?x1086 (bvadd (_ bv63 6) ?x8347)))
 (let ((?x7536 (stack_t x_0 x_1 x_SLOAD_0 w_1 1 ?x1086)))
 (let ((?x11486 (bvadd (_ bv62 6) ?x8347)))
 (let ((?x8865 (stack_t x_0 x_1 x_SLOAD_0 w_1 1 ?x11486)))
 (let ((?x5437 (bvadd (_ bv61 6) ?x8347)))
 (let ((?x789 (stack_t x_0 x_1 x_SLOAD_0 w_1 1 ?x5437)))
 (let (($x1609 (= $x3508 (or $x56 (not (= ((_ extract 6 6) (bvadd (_ bv1 7) (concat (_ bv0 1) ?x63))) (_ bv0 1)))))))
 (let (($x4821 (forall ((w (_ BitVec 256)) )(let ((?x4666 (storage_t x_0 x_1 x_SLOAD_0 w_1 0 w)))
 (let ((?x7221 (storage_t x_0 x_1 x_SLOAD_0 w_1 1 w)))
 (= ?x7221 ?x4666))))
 ))
 (let (($x4461 (forall ((n (_ BitVec 6)) )(let ((?x63 (sc_t 0)))
 (let (($x5499 (bvsle ?x63 n)))
 (let ((?x8292 (stack_t x_0 x_1 x_SLOAD_0 w_1 0 n)))
 (let ((?x10416 (stack_t x_0 x_1 x_SLOAD_0 w_1 1 n)))
 (or (= ?x10416 ?x8292) $x5499))))))
 ))
 (let (($x11604 (= ?x8347 (bvadd (_ bv1 6) ?x63))))
 (let ((?x11059 (used_gas_t x_0 x_1 x_SLOAD_0 w_1 1)))
 (let (($x10525 (= ?x11059 (+ 3 ?x1005))))
 (let (($x3306 (= (stack_t x_0 x_1 x_SLOAD_0 w_1 1 ?x63) w_1)))
 (let (($x8170 (= $x772 (or (exc_halt_s 5) (not (bvsle (_ bv0 6) (bvadd (_ bv61 6) (sc_s 5))))))))
 (let (($x1901 (forall ((w (_ BitVec 256)) )(let ((?x8999 (storage_s x_0 x_1 x_SLOAD_0 w_1 5 w)))
 (let ((?x2232 (storage_s x_0 x_1 x_SLOAD_0 w_1 6 w)))
 (= ?x2232 ?x8999))))
 ))
 (let (($x6850 (forall ((n (_ BitVec 6)) )(let ((?x2783 (stack_s x_0 x_1 x_SLOAD_0 w_1 5 n)))
 (let ((?x7316 (stack_s x_0 x_1 x_SLOAD_0 w_1 6 n)))
 (let (($x7089 (= ?x7316 ?x2783)))
 (or $x7089 (bvsle (bvadd (_ bv61 6) (sc_s 5)) n))))))
 ))
 (let ((?x4319 (sc_s 5)))
 (let (($x1271 (= ?x926 ?x4319)))
 (let (($x10454 (= (used_gas_s x_0 x_1 x_SLOAD_0 w_1 6) (+ 3 (used_gas_s x_0 x_1 x_SLOAD_0 w_1 5)))))
 (let ((?x9001 (bvadd (_ bv62 6) ?x4319)))
 (let ((?x7835 (stack_s x_0 x_1 x_SLOAD_0 w_1 5 ?x9001)))
 (let ((?x8409 (bvadd (_ bv63 6) ?x4319)))
 (let ((?x387 (stack_s x_0 x_1 x_SLOAD_0 w_1 5 ?x8409)))
 (let (($x9811 (= (stack_s x_0 x_1 x_SLOAD_0 w_1 6 (bvadd (_ bv63 6) ?x926)) (stack_s x_0 x_1 x_SLOAD_0 w_1 5 (bvadd (_ bv61 6) ?x4319)))))
 (let (($x7172 (exc_halt_s 4)))
 (let (($x6525 (or $x7172 (not (= ((_ extract 6 6) (bvadd (_ bv1 7) (concat (_ bv0 1) (sc_s 4)))) (_ bv0 1))))))
 (let (($x11317 (exc_halt_s 5)))
 (let (($x4300 (= $x11317 $x6525)))
 (let (($x8311 (forall ((w (_ BitVec 256)) )(let ((?x6578 (storage_s x_0 x_1 x_SLOAD_0 w_1 4 w)))
 (let ((?x8999 (storage_s x_0 x_1 x_SLOAD_0 w_1 5 w)))
 (= ?x8999 ?x6578))))
 ))
 (let (($x9000 (forall ((n (_ BitVec 6)) )(let ((?x1579 (stack_s x_0 x_1 x_SLOAD_0 w_1 4 n)))
 (let ((?x2783 (stack_s x_0 x_1 x_SLOAD_0 w_1 5 n)))
 (let (($x9290 (= ?x2783 ?x1579)))
 (let ((?x4305 (sc_s 4)))
 (let (($x5387 (bvsle ?x4305 n)))
 (or $x5387 $x9290)))))))
 ))
 (let (($x739 (= ?x4319 (bvadd (_ bv1 6) (sc_s 4)))))
 (let ((?x8986 (used_gas_s x_0 x_1 x_SLOAD_0 w_1 5)))
 (let (($x9184 (= ?x8986 (+ 3 (used_gas_s x_0 x_1 x_SLOAD_0 w_1 4)))))
 (let (($x5446 (= $x7172 (or (exc_halt_s 3) (not (bvsle (_ bv0 6) (bvadd (_ bv61 6) (sc_s 3))))))))
 (let (($x2055 (forall ((w (_ BitVec 256)) )(let ((?x5773 (storage_s x_0 x_1 x_SLOAD_0 w_1 3 w)))
 (let ((?x6578 (storage_s x_0 x_1 x_SLOAD_0 w_1 4 w)))
 (= ?x6578 ?x5773))))
 ))
 (let (($x9723 (forall ((n (_ BitVec 6)) )(let ((?x10273 (stack_s x_0 x_1 x_SLOAD_0 w_1 3 n)))
 (let ((?x1579 (stack_s x_0 x_1 x_SLOAD_0 w_1 4 n)))
 (let (($x9966 (= ?x1579 ?x10273)))
 (let ((?x275 (sc_s 3)))
 (let ((?x9862 (bvadd (_ bv61 6) ?x275)))
 (let (($x6845 (bvsle ?x9862 n)))
 (or $x6845 $x9966))))))))
 ))
 (let ((?x275 (sc_s 3)))
 (let ((?x4305 (sc_s 4)))
 (let (($x10151 (= ?x4305 ?x275)))
 (let ((?x2994 (used_gas_s x_0 x_1 x_SLOAD_0 w_1 4)))
 (let (($x1554 (= ?x2994 (+ 3 (used_gas_s x_0 x_1 x_SLOAD_0 w_1 3)))))
 (let ((?x1922 (bvadd (_ bv62 6) ?x275)))
 (let ((?x9410 (stack_s x_0 x_1 x_SLOAD_0 w_1 3 ?x1922)))
 (let ((?x3389 (bvadd (_ bv62 6) ?x4305)))
 (let ((?x6547 (stack_s x_0 x_1 x_SLOAD_0 w_1 4 ?x3389)))
 (let ((?x891 (bvadd (_ bv63 6) ?x275)))
 (let ((?x11223 (stack_s x_0 x_1 x_SLOAD_0 w_1 3 ?x891)))
 (let ((?x9862 (bvadd (_ bv61 6) ?x275)))
 (let ((?x5027 (stack_s x_0 x_1 x_SLOAD_0 w_1 3 ?x9862)))
 (let ((?x6745 (bvadd (_ bv63 6) ?x4305)))
 (let ((?x4963 (stack_s x_0 x_1 x_SLOAD_0 w_1 4 ?x6745)))
 (let (($x9693 (not (bvsle (_ bv0 6) (bvadd (_ bv61 6) (sc_s 2))))))
 (let (($x2505 (not (= ((_ extract 6 6) (bvadd (_ bv1 7) (concat (_ bv0 1) (sc_s 2)))) (_ bv0 1)))))
 (let (($x247 (exc_halt_s 2)))
 (let (($x292 (exc_halt_s 3)))
 (let (($x6166 (forall ((w (_ BitVec 256)) )(let ((?x7928 (storage_s x_0 x_1 x_SLOAD_0 w_1 2 w)))
 (let ((?x5773 (storage_s x_0 x_1 x_SLOAD_0 w_1 3 w)))
 (= ?x5773 ?x7928))))
 ))
 (let (($x6642 (forall ((n (_ BitVec 6)) )(let ((?x1421 (stack_s x_0 x_1 x_SLOAD_0 w_1 2 n)))
 (let ((?x10273 (stack_s x_0 x_1 x_SLOAD_0 w_1 3 n)))
 (let ((?x218 (sc_s 2)))
 (let ((?x5345 (bvadd (_ bv61 6) ?x218)))
 (let (($x989 (bvsle ?x5345 n)))
 (or $x989 (= ?x10273 ?x1421))))))))
 ))
 (let (($x2296 (= ?x275 (bvadd (_ bv1 6) (sc_s 2)))))
 (let ((?x2411 (used_gas_s x_0 x_1 x_SLOAD_0 w_1 3)))
 (let (($x11806 (= ?x2411 (+ 3 (used_gas_s x_0 x_1 x_SLOAD_0 w_1 2)))))
 (let ((?x218 (sc_s 2)))
 (let ((?x8766 (bvadd (_ bv63 6) ?x218)))
 (let ((?x5983 (stack_s x_0 x_1 x_SLOAD_0 w_1 2 ?x8766)))
 (let ((?x6986 (bvadd (_ bv62 6) ?x218)))
 (let ((?x9810 (stack_s x_0 x_1 x_SLOAD_0 w_1 2 ?x6986)))
 (let ((?x5345 (bvadd (_ bv61 6) ?x218)))
 (let ((?x8029 (stack_s x_0 x_1 x_SLOAD_0 w_1 2 ?x5345)))
 (let (($x5506 (= ?x11223 ?x8029)))
 (let (($x10766 (= $x247 (or (exc_halt_s 1) (not (bvsle (_ bv0 6) (bvadd (_ bv63 6) (sc_s 1))))))))
 (let (($x11527 (forall ((w (_ BitVec 256)) )(let ((?x10173 (storage_s x_0 x_1 x_SLOAD_0 w_1 1 w)))
 (let ((?x7928 (storage_s x_0 x_1 x_SLOAD_0 w_1 2 w)))
 (= ?x7928 ?x10173))))
 ))
 (let (($x3194 (forall ((n (_ BitVec 6)) )(let ((?x10341 (stack_s x_0 x_1 x_SLOAD_0 w_1 1 n)))
 (let ((?x1421 (stack_s x_0 x_1 x_SLOAD_0 w_1 2 n)))
 (let (($x8922 (= ?x1421 ?x10341)))
 (let ((?x154 (sc_s 1)))
 (let ((?x7271 (bvadd (_ bv63 6) ?x154)))
 (let (($x8363 (bvsle ?x7271 n)))
 (or $x8363 $x8922))))))))
 ))
 (let ((?x154 (sc_s 1)))
 (let (($x11011 (= ?x218 ?x154)))
 (let ((?x10288 (used_gas_s x_0 x_1 x_SLOAD_0 w_1 2)))
 (let ((?x7271 (bvadd (_ bv63 6) ?x154)))
 (let ((?x10893 (stack_s x_0 x_1 x_SLOAD_0 w_1 1 ?x7271)))
 (let (($x2150 (not (= ((_ extract 6 6) (bvadd (_ bv1 7) (concat (_ bv0 1) ?x72))) (_ bv0 1)))))
 (let (($x189 (exc_halt_s 1)))
 (let (($x7889 (= $x189 (or $x57 $x2150 (not (bvsle (_ bv0 6) (bvadd (_ bv63 6) ?x72)))))))
 (let (($x801 (forall ((w (_ BitVec 256)) )(let ((?x528 (storage_s x_0 x_1 x_SLOAD_0 w_1 0 w)))
 (let ((?x10173 (storage_s x_0 x_1 x_SLOAD_0 w_1 1 w)))
 (= ?x10173 ?x528))))
 ))
 (let (($x6716 (forall ((n (_ BitVec 6)) )(let ((?x6172 (stack_s x_0 x_1 x_SLOAD_0 w_1 0 n)))
 (let ((?x10341 (stack_s x_0 x_1 x_SLOAD_0 w_1 1 n)))
 (let (($x11081 (= ?x10341 ?x6172)))
 (let ((?x72 (sc_s 0)))
 (let ((?x4397 (bvadd (_ bv63 6) ?x72)))
 (let (($x9755 (bvsle ?x4397 n)))
 (or $x9755 $x11081))))))))
 ))
 (let (($x6368 (= ?x154 (bvadd (_ bv1 6) ?x72))))
 (let ((?x6839 (used_gas_s x_0 x_1 x_SLOAD_0 w_1 1)))
 (let (($x8630 (= ?x6839 (+ 3 ?x11839))))
 (let ((?x4397 (bvadd (_ bv63 6) ?x72)))
 (let ((?x8737 (stack_s x_0 x_1 x_SLOAD_0 w_1 0 ?x4397)))
 (let (($x4628 (forall ((w (_ BitVec 256)) )(let (($x6648 (= w (stack_s x_0 x_1 x_SLOAD_0 w_1 1 (bvadd (_ bv63 6) (sc_s 1))))))
 (let ((?x528 (storage_s x_0 x_1 x_SLOAD_0 w_1 0 w)))
 (= ?x528 (ite $x6648 x_SLOAD_0 (_ bv0 256))))))
 ))
 (let (($x10296 (= ?x11839 0)))
 (let (($x11443 (not $x57)))
 (let (($x1824 (= (stack_s x_0 x_1 x_SLOAD_0 w_1 0 (_ bv1 6)) x_1)))
 (let (($x10043 (= (stack_s x_0 x_1 x_SLOAD_0 w_1 0 (_ bv0 6)) x_0)))
 (let (($x11128 (= ?x72 (_ bv2 6))))
 (and $x11128 $x10043 $x1824 $x11443 $x10296 $x4628 (= ?x10893 ?x8737) (= (stack_s x_0 x_1 x_SLOAD_0 w_1 1 ?x4397) ?x8737) $x8630 $x6368 $x6716 $x801 $x7889 (= ?x5983 (storage_s x_0 x_1 x_SLOAD_0 w_1 1 ?x10893)) (= ?x10288 (+ 200 ?x6839)) $x11011 $x3194 $x11527 $x10766 $x5506 (= (stack_s x_0 x_1 x_SLOAD_0 w_1 3 ?x5345) ?x8029) (= (stack_s x_0 x_1 x_SLOAD_0 w_1 3 ?x6986) ?x9810) (= (stack_s x_0 x_1 x_SLOAD_0 w_1 3 ?x8766) ?x5983) $x11806 $x2296 $x6642 $x6166 (= $x292 (or $x247 $x2505 $x9693)) (= ?x4963 ?x5027) (= (stack_s x_0 x_1 x_SLOAD_0 w_1 4 (bvadd (_ bv61 6) ?x4305)) ?x11223) (= ?x6547 ?x9410) $x1554 $x10151 $x9723 $x2055 $x5446 (= (stack_s x_0 x_1 x_SLOAD_0 w_1 5 ?x4305) w_1) $x9184 $x739 $x9000 $x8311 $x4300 $x9811 (= (stack_s x_0 x_1 x_SLOAD_0 w_1 6 (bvadd (_ bv61 6) ?x926)) ?x387) (= (stack_s x_0 x_1 x_SLOAD_0 w_1 6 (bvadd (_ bv62 6) ?x926)) ?x7835) $x10454 $x1271 $x6850 $x1901 $x8170 $x3306 $x10525 $x11604 $x4461 $x4821 $x1609 (= ?x9195 ?x789) (= (stack_t x_0 x_1 x_SLOAD_0 w_1 2 ?x5437) ?x789) (= (stack_t x_0 x_1 x_SLOAD_0 w_1 2 ?x11486) ?x8865) (= (stack_t x_0 x_1 x_SLOAD_0 w_1 2 ?x1086) ?x7536) $x5075 $x134 $x3592 $x4900 $x9597 (= ?x7833 (stack_t x_0 x_1 x_SLOAD_0 w_1 2 (bvadd (_ bv61 6) ?x2714))) (= ?x7685 ?x9195) (= ?x7692 ?x11299) $x1147 $x5711 $x7020 $x2294 $x6740 (= ?x9884 ?x7833) (= (stack_t x_0 x_1 x_SLOAD_0 w_1 4 ?x7970) ?x7833) $x10825 $x2801 $x5458 $x10741 (= $x7722 (or $x3840 (not (bvsle (_ bv0 6) ?x7970)) $x6783)) $x10686 $x7421 $x6915 $x3769 $x8713 $x10997 $x73 $x9976 $x58 $x7691 $x9145 (not (and $x929 $x10353 $x889 $x4847)))))))))))))))))))))))))))))))))))))))))))))))))))))))))))))))))))))))))))))))))))))))))))))))))))))))))))))))))))))))))))))))))))))))))))))))))))))))))))))))))
 )
(check-sat)
(get-proof)
